15
1 0 36
2 0 37
2 1 59
3 0 20
3 1 99
3 2 12
4 0 92
4 1 37
4 2 59
4 3 84
5 0 90
5 1 17
5 2 61
5 3 44
5 4 97
6 0 43
6 1 13
6 2 8
6 3 94
6 4 27
6 5 95
7 0 85
7 1 47
7 2 76
7 3 62
7 4 6
7 5 4
7 6 20
8 0 92
8 1 56
8 2 57
8 3 7
8 4 47
8 5 61
8 6 13
8 7 91
9 0 69
9 1 32
9 2 40
9 3 49
9 4 29
9 5 59
9 6 83
9 7 17
9 8 86
10 0 8
10 1 67
10 2 31
10 3 43
10 4 65
10 5 28
10 6 9
10 7 97
10 8 34
10 9 39
11 0 6
11 1 15
11 2 83
11 3 28
11 4 34
11 5 97
11 6 79
11 7 100
11 8 36
11 9 96
11 10 76
12 0 12
12 1 35
12 2 7
12 3 49
12 4 60
12 5 17
12 6 58
12 7 64
12 8 79
12 9 15
12 10 46
12 11 46
13 0 67
13 1 87
13 2 9
13 3 85
13 4 84
13 5 30
13 6 41
13 7 81
13 8 80
13 9 60
13 10 65
13 11 37
13 12 61
14 0 38
14 1 36
14 2 19
14 3 97
14 4 51
14 5 45
14 6 78
14 7 20
14 8 54
14 9 27
14 10 85
14 11 82
14 12 33
14 13 20
